p edge 50 96
e 1 17
e 1 21
e 1 48
e 2 8
e 2 21
e 2 44
e 3 4
e 3 9
e 3 23
e 3 31
e 3 33
e 3 46
e 4 5
e 4 10
e 4 16
e 4 22
e 4 24
e 4 32
e 4 35
e 4 37
e 4 38
e 4 39
e 5 24
e 5 30
e 5 45
e 6 16
e 6 29
e 6 34
e 7 14
e 7 17
e 7 46
e 7 48
e 8 11
e 8 46
e 9 24
e 9 26
e 9 31
e 9 48
e 10 12
e 10 16
e 10 36
e 10 44
e 11 15
e 11 29
e 11 42
e 12 20
e 12 29
e 12 36
e 12 40
e 13 15
e 13 27
e 13 33
e 13 36
e 13 37
e 13 39
e 14 47
e 14 48
e 15 18
e 15 19
e 15 36
e 15 38
e 16 27
e 16 30
e 17 37
e 17 46
e 18 41
e 19 23
e 20 21
e 21 24
e 21 44
e 22 24
e 22 28
e 22 34
e 22 49
e 23 26
e 23 29
e 23 40
e 24 40
e 25 26
e 25 41
e 26 32
e 26 34
e 26 40
e 27 32
e 27 38
e 28 30
e 31 45
e 32 36
e 36 40
e 38 39
e 38 48
e 39 49
e 40 41
e 43 50
e 45 48
e 46 50
